Solving original (integer) problem with strategy gdp.bigm...
--- Job model.gms Start 02/15/26 03:57:22 52.2.0 d8e408be LEX-LEG x86 64bit/Linux
--- Applying:
    /package/gams/52.2/gmsprmun.txt
--- GAMS Parameters defined
    Input /local/scratch/a/sgusev/repos/k_means/data/gams_gurobi_gdp.bigm/no_mode/2026-02-15_03-57-21/original/model.gms
    Output /local/scratch/a/sgusev/repos/k_means/data/gams_gurobi_gdp.bigm/no_mode/2026-02-15_03-57-21/original/output.lst
    ScrDir /local/scratch/a/sgusev/repos/k_means/data/gams_gurobi_gdp.bigm/no_mode/2026-02-15_03-57-21/original/225a/
    SysDir /package/gams/52.2/
    CurDir /local/scratch/a/sgusev/repos/k_means/data/gams_gurobi_gdp.bigm/no_mode/2026-02-15_03-57-21/original/
    LogOption 3
    AppendLog 1
Licensee: David Bernal / SECQUOIA Research Group         G251008+0003Ac-GEN
          Purdue University, Davidson School of Chemical EngineeringDCE4838
          225a/gamslice.dat
          5a82958a-fbca-4a23
          node:66820903 mem:995 cores:48 ipport:35213 v:2                  
          Evaluation license: Not for commercial or production use
          The time-limited license stops working on : Jun 30, 2027
System information: 48 physical cores and 995 Gb physical memory detected
GAMS 52.2.0   Copyright (C) 1987-2025 GAMS Development. All rights reserved
--- Starting compilation
--- model.gms(384) 2 Mb
--- $echo File /local/scratch/a/sgusev/repos/k_means/data/gams_gurobi_gdp.bigm/no_mode/2026-02-15_03-57-21/original/gurobi.opt
--- model.gms(656) 2 Mb
--- Starting execution: elapsed 0:00:00.007
--- model.gms(393) 3 Mb
--- Generating MINLP model GAMS_MODEL
--- model.gms(397) 5 Mb
---   95 rows  111 columns  549 non-zeroes
---   1,275 nl-code  300 nl-non-zeroes
---   75 discrete-columns
--- Range statistics (absolute non-zero finite values)
--- RHS       [min, max] : [ 1.000E+00, 1.296E+01] - Zero values observed as well
--- Bound     [min, max] : [ 1.000E+00, 1.200E+02] - Zero values observed as well
--- Matrix    [min, max] : [ 1.096E-02, 1.296E+01]
--- model.gms(397) 3 Mb
--- Executing GUROBI (Solvelink=5): elapsed 0:00:00.010
Reading parameter(s) from "/local/scratch/a/sgusev/repos/k_means/data/gams_gurobi_gdp.bigm/no_mode/2026-02-15_03-57-21/original/gurobi.opt"
>>  NonConvex 2
>>  Threads 1
>>  MIPGap 1e-06
>>  MIPGapAbs 1e-10
>>  FeasibilityTol 1e-06
>>  OptimalityTol 1e-06
>>  IntFeasTol 1e-05
Finished reading from "/local/scratch/a/sgusev/repos/k_means/data/gams_gurobi_gdp.bigm/no_mode/2026-02-15_03-57-21/original/gurobi.opt"

... GRB_LICENSE_FILE = /local/scratch/a/sgusev/gurobi.lic

    Gurobi           52.2.0 d8e408be Dec 8, 2025           LEG x86 64bit/Linux    

... GAMS/Gurobi Link license.
... GMO Q Extraction (ThreePass): 0.00s

    Gurobi Optimizer version 13.0.0 build v13.0.0rc1 (linux64 - "Oracle Linux Server 9.7")
    
    CPU model: AMD EPYC 7643 48-Core Processor, instruction set [SSE2|AVX|AVX2]
    Thread count: 48 physical cores, 96 logical processors, using up to 1 threads
    
    Non-default parameters:
    TimeLimit  300
    MIPGap  1e-06
    LogToConsole  0
    NonConvex  2
    Threads  1
    
    Optimize a model with 19 rows, 110 columns and 83 nonzeros (Min)
    Model fingerprint: 0x7fd219f4
    Model has 15 linear objective coefficients
    Model has 75 quadratic constraints
    Variable types: 35 continuous, 75 integer (0 binary)
    Coefficient statistics:
      Matrix range     [1e+00, 1e+00]
      QMatrix range    [1e+00, 1e+00]
      QLMatrix range   [1e-02, 1e+01]
      Objective range  [1e+00, 1e+00]
      Bounds range     [1e+00, 1e+02]
      RHS range        [1e+00, 1e+00]
      QRHS range       [6e+00, 1e+01]
    Presolve added 75 rows and 5 columns
    Presolve time: 0.00s
    Presolved: 94 rows, 115 columns, 608 nonzeros
    Presolved model has 5 quadratic constraint(s)
    Variable types: 40 continuous, 75 integer (75 binary)
    
    Root relaxation: objective 0.000000e+00, 29 iterations, 0.00 seconds (0.00 work units)
    
        Nodes    |    Current Node    |     Objective Bounds      |     Work
     Expl Unexpl |  Obj  Depth IntInf | Incumbent    BestBd   Gap | It/Node Time
    
    H    0     0                      12.0075113    0.00000   100%     -    0s
    *    0     0               0      12.0075113    0.00000   100%     -    0s
         0     0    0.00000    0   10   12.00751    0.00000   100%     -    0s
         0     0    0.00000    0   26   12.00751    0.00000   100%     -    0s
    H    0     0                      11.7655352    0.00000   100%     -    0s
         0     0    0.00000    0   26   11.76554    0.00000   100%     -    0s
         0     0    0.00000    0   32   11.76554    0.00000   100%     -    0s
    H    0     0                       8.7899160    0.00000   100%     -    0s
    *    0     0               0       8.7899160    0.00000   100%     -    0s
         0     0    0.00000    0   19    8.78992    0.00000   100%     -    0s
         0     0    0.00000    0   30    8.78992    0.00000   100%     -    0s
         0     0    0.00000    0    -    8.78992    0.00000   100%     -    0s
         0     0    0.00000    0   22    8.78992    0.00000   100%     -    0s
         0     0    0.00000    0   35    8.78992    0.00000   100%     -    0s
         0     0    0.00000    0    -    8.78992    0.00000   100%     -    0s
         0     0    0.00000    0   20    8.78992    0.00000   100%     -    0s
         0     0    0.00000    0   31    8.78992    0.00000   100%     -    0s
         0     0    0.00000    0    -    8.78992    0.00000   100%     -    0s
         0     0    0.00000    0   18    8.78992    0.00000   100%     -    0s
         0     0    0.00000    0   32    8.78992    0.00000   100%     -    0s
         0     0    0.00000    0    -    8.78992    0.00000   100%     -    0s
         0     0    0.00000    0   18    8.78992    0.00000   100%     -    0s
         0     0    0.00000    0   20    8.78992    0.00000   100%     -    0s
         0     0    0.00000    0   10    8.78992    0.00000   100%     -    0s
         0     0    0.00000    0   20    8.78992    0.00000   100%     -    0s
         0     0    0.00000    0    2    8.78992    0.00000   100%     -    0s
         0     0    0.00000    0   16    8.78992    0.00000   100%     -    0s
         0     0    0.00000    0   10    8.78992    0.00000   100%     -    0s
         0     0    0.00000    0   12    8.78992    0.00000   100%     -    0s
         0     0    0.00000    0    -    8.78992    0.00000   100%     -    0s
         0     0    0.00000    0   14    8.78992    0.00000   100%     -    0s
         0     0    0.00000    0   28    8.78992    0.00000   100%     -    0s
         0     0    0.00000    0    6    8.78992    0.00000   100%     -    0s
         0     0    0.00000    0   18    8.78992    0.00000   100%     -    0s
         0     0    0.00000    0   18    8.78992    0.00000   100%     -    0s
         0     0    0.00000    0   30    8.78992    0.00000   100%     -    0s
    H    0     0                       7.4559499    0.00000   100%     -    0s
    *    0     0               0       7.4559499    0.00000   100%     -    0s
         0     0    0.00000    0   14    7.45595    0.00000   100%     -    0s
         0     0    0.00000    0   26    7.45595    0.00000   100%     -    0s
         0     0    0.00000    0    2    7.45595    0.00000   100%     -    0s
         0     0    0.00000    0   20    7.45595    0.00000   100%     -    0s
         0     0    0.00000    0    8    7.45595    0.00000   100%     -    0s
         0     0    0.00000    0   20    7.45595    0.00000   100%     -    0s
         0     0    0.00000    0    4    7.45595    0.00000   100%     -    0s
         0     0    0.00000    0   24    7.45595    0.00000   100%     -    0s
         0     0    0.00000    0    6    7.45595    0.00000   100%     -    0s
         0     0    0.00000    0   22    7.45595    0.00000   100%     -    0s
         0     0    0.00000    0   12    7.45595    0.00000   100%     -    0s
         0     0    0.00000    0   18    7.45595    0.00000   100%     -    0s
    H    0     0                       6.1047890    0.00000   100%     -    0s
    *    0     0               0       6.1047890    0.00000   100%     -    0s
         0     0    0.00000    0   14    6.10479    0.00000   100%     -    0s
         0     0    0.00000    0   23    6.10479    0.00000   100%     -    0s
         0     0    0.00000    0   10    6.10479    0.00000   100%     -    0s
         0     0    0.00000    0   18    6.10479    0.00000   100%     -    0s
         0     0    0.00000    0   18    6.10479    0.00000   100%     -    0s
         0     0    0.00000    0   18    6.10479    0.00000   100%     -    0s
         0     0    0.00000    0    8    6.10479    0.00000   100%     -    0s
         0     0    0.00000    0   14    6.10479    0.00000   100%     -    0s
         0     0    0.00000    0   14    6.10479    0.00000   100%     -    0s
         0     0    0.00000    0   20    6.10479    0.00000   100%     -    0s
         0     0    0.00000    0   16    6.10479    0.00000   100%     -    0s
         0     0    0.00000    0   20    6.10479    0.00000   100%     -    0s
         0     0    0.00000    0    6    6.10479    0.00000   100%     -    0s
         0     0    0.00000    0   16    6.10479    0.00000   100%     -    0s
         0     0    0.00000    0   10    6.10479    0.00000   100%     -    0s
         0     0    0.00000    0   14    6.10479    0.00000   100%     -    0s
         0     0    0.00000    0   14    6.10479    0.00000   100%     -    0s
         0     0    0.00000    0   16    6.10479    0.00000   100%     -    0s
         0     0    0.00000    0   12    6.10479    0.00000   100%     -    0s
         0     0    0.00000    0   20    6.10479    0.00000   100%     -    0s
         0     0    0.00000    0   20    6.10479    0.00000   100%     -    0s
         0     0    0.00000    0   26    6.10479    0.00000   100%     -    0s
         0     0    0.00000    0   10    6.10479    0.00000   100%     -    0s
         0     0    0.00000    0   20    6.10479    0.00000   100%     -    0s
         0     0    0.00000    0   10    6.10479    0.00000   100%     -    0s
         0     0    0.00000    0   20    6.10479    0.00000   100%     -    0s
         0     0    0.00000    0   10    6.10479    0.00000   100%     -    0s
         0     0    0.00000    0   20    6.10479    0.00000   100%     -    0s
         0     0    0.00000    0   10    6.10479    0.00000   100%     -    0s
         0     0    0.00000    0   18    6.10479    0.00000   100%     -    0s
         0     0    0.00000    0    6    6.10479    0.00000   100%     -    0s
         0     0    0.00000    0   18    6.10479    0.00000   100%     -    0s
         0     0    0.00000    0   18    6.10479    0.00000   100%     -    0s
         0     0    0.00000    0   24    6.10479    0.00000   100%     -    0s
         0     0    0.00000    0   10    6.10479    0.00000   100%     -    0s
         0     0    0.00000    0   20    6.10479    0.00000   100%     -    0s
         0     0    0.00000    0   12    6.10479    0.00000   100%     -    0s
         0     0    0.00000    0   20    6.10479    0.00000   100%     -    0s
         0     0    0.00000    0    4    6.10479    0.00000   100%     -    0s
         0     0    0.00000    0   20    6.10479    0.00000   100%     -    0s
         0     0    0.00000    0   18    6.10479    0.00000   100%     -    0s
         0     0    0.00000    0   20    6.10479    0.00000   100%     -    0s
         0     0    0.00000    0   20    6.10479    0.00000   100%     -    0s
         0     0    0.00000    0   35    6.10479    0.00000   100%     -    0s
         0     0    0.00000    0   14    6.10479    0.00000   100%     -    0s
         0     0    0.00000    0   22    6.10479    0.00000   100%     -    0s
         0     0    0.00000    0   16    6.10479    0.00000   100%     -    0s
         0     0    0.00000    0   30    6.10479    0.00000   100%     -    0s
         0     0    0.00000    0    8    6.10479    0.00000   100%     -    0s
         0     0    0.00000    0   20    6.10479    0.00000   100%     -    0s
         0     0    0.00000    0   18    6.10479    0.00000   100%     -    0s
         0     0    0.00000    0   20    6.10479    0.00000   100%     -    0s
         0     0    0.00000    0   14    6.10479    0.00000   100%     -    0s
         0     0    0.00000    0   24    6.10479    0.00000   100%     -    0s
         0     0    0.00000    0   12    6.10479    0.00000   100%     -    0s
         0     0    0.00000    0   22    6.10479    0.00000   100%     -    0s
         0     0    0.00000    0   10    6.10479    0.00000   100%     -    0s
         0     0    0.00000    0   18    6.10479    0.00000   100%     -    0s
         0     0    0.00000    0   18    6.10479    0.00000   100%     -    0s
         0     0    0.00000    0   30    6.10479    0.00000   100%     -    0s
         0     0    0.00000    0   10    6.10479    0.00000   100%     -    0s
         0     0    0.00000    0   18    6.10479    0.00000   100%     -    0s
         0     0    0.00000    0   18    6.10479    0.00000   100%     -    0s
         0     0    0.00000    0   20    6.10479    0.00000   100%     -    0s
         0     0    0.00000    0   18    6.10479    0.00000   100%     -    0s
         0     0    0.00000    0   18    6.10479    0.00000   100%     -    0s
         0     0    0.00000    0   18    6.10479    0.00000   100%     -    0s
         0     0    0.00000    0   26    6.10479    0.00000   100%     -    0s
         0     0    0.00000    0    2    6.10479    0.00000   100%     -    0s
         0     0    0.00000    0   20    6.10479    0.00000   100%     -    0s
         0     0    0.00000    0    8    6.10479    0.00000   100%     -    0s
         0     0    0.00000    0   18    6.10479    0.00000   100%     -    0s
         0     0    0.00000    0    8    6.10479    0.00000   100%     -    0s
         0     0    0.00000    0   20    6.10479    0.00000   100%     -    0s
         0     0    0.00000    0    8    6.10479    0.00000   100%     -    0s
         0     0    0.00000    0   20    6.10479    0.00000   100%     -    0s
         0     0    0.00000    0   12    6.10479    0.00000   100%     -    0s
         0     0    0.00000    0   18    6.10479    0.00000   100%     -    0s
         0     0    0.00000    0    6    6.10479    0.00000   100%     -    0s
         0     0    0.00000    0   12    6.10479    0.00000   100%     -    0s
         0     0    0.00000    0   10    6.10479    0.00000   100%     -    0s
         0     0    0.00000    0   20    6.10479    0.00000   100%     -    0s
    H    0     0                       5.8110101    0.00000   100%     -    0s
    *    0     0               0       5.8110101    0.00000   100%     -    0s
         0     0    0.00000    0   17    5.81101    0.00000   100%     -    0s
         0     0    0.00000    0   30    5.81101    0.00000   100%     -    0s
         0     0    0.00000    0   16    5.81101    0.00000   100%     -    0s
         0     0    0.00000    0   26    5.81101    0.00000   100%     -    0s
         0     0    0.00000    0   10    5.81101    0.00000   100%     -    0s
         0     0    0.00000    0   24    5.81101    0.00000   100%     -    0s
         0     0    0.00000    0   20    5.81101    0.00000   100%     -    0s
         0     0    0.00000    0   22    5.81101    0.00000   100%     -    0s
         0     0    0.00000    0   18    5.81101    0.00000   100%     -    0s
         0     0    0.00000    0   26    5.81101    0.00000   100%     -    0s
         0     0    0.00000    0   12    5.81101    0.00000   100%     -    0s
         0     0    0.00000    0   16    5.81101    0.00000   100%     -    0s
         0     0    0.00000    0   10    5.81101    0.00000   100%     -    0s
         0     0    0.00000    0   26    5.81101    0.00000   100%     -    0s
         0     0    0.00000    0   18    5.81101    0.00000   100%     -    0s
         0     0    0.00000    0   24    5.81101    0.00000   100%     -    0s
         0     0    0.00000    0    4    5.81101    0.00000   100%     -    0s
         0     0    0.00000    0   25    5.81101    0.00000   100%     -    0s
         0     0    0.00000    0   16    5.81101    0.00000   100%     -    0s
         0     0    0.00000    0   20    5.81101    0.00000   100%     -    0s
         0     0    0.00000    0   10    5.81101    0.00000   100%     -    0s
         0     0    0.00000    0   22    5.81101    0.00000   100%     -    0s
         0     0    0.00000    0   10    5.81101    0.00000   100%     -    0s
         0     0    0.00000    0   28    5.81101    0.00000   100%     -    0s
         0     0    0.00000    0   14    5.81101    0.00000   100%     -    0s
         0     0    0.00000    0   24    5.81101    0.00000   100%     -    0s
         0     0    0.00000    0    8    5.81101    0.00000   100%     -    0s
         0     0    0.00000    0   24    5.81101    0.00000   100%     -    0s
         0     0    0.00000    0    6    5.81101    0.00000   100%     -    0s
         0     0    0.00000    0   18    5.81101    0.00000   100%     -    0s
         0     0    0.00000    0   16    5.81101    0.00000   100%     -    0s
         0     0    0.00000    0   24    5.81101    0.00000   100%     -    0s
         0     0    0.00000    0    6    5.81101    0.00000   100%     -    0s
         0     0    0.00000    0   26    5.81101    0.00000   100%     -    0s
         0     0    0.00000    0   10    5.81101    0.00000   100%     -    0s
         0     0    0.00000    0   20    5.81101    0.00000   100%     -    0s
         0     0    0.00000    0   14    5.81101    0.00000   100%     -    0s
         0     0    0.00000    0   26    5.81101    0.00000   100%     -    0s
         0     0    0.00000    0    8    5.81101    0.00000   100%     -    0s
         0     0    0.00000    0   16    5.81101    0.00000   100%     -    0s
         0     0    0.00000    0    2    5.81101    0.00000   100%     -    0s
         0     0    0.00000    0   18    5.81101    0.00000   100%     -    0s
         0     0    0.00000    0   12    5.81101    0.00000   100%     -    0s
         0     0    0.00000    0   26    5.81101    0.00000   100%     -    0s
         0     0    0.00000    0    8    5.81101    0.00000   100%     -    0s
         0     0    0.00000    0   26    5.81101    0.00000   100%     -    0s
         0     0    0.00000    0   14    5.81101    0.00000   100%     -    0s
         0     0    0.00000    0   18    5.81101    0.00000   100%     -    0s
         0     0    0.00000    0   16    5.81101    0.00000   100%     -    0s
         0     0    0.00000    0   20    5.81101    0.00000   100%     -    0s
         0     0    0.00000    0   20    5.81101    0.00000   100%     -    0s
         0     0    0.00000    0   25    5.81101    0.00000   100%     -    0s
         0     0    0.00000    0   10    5.81101    0.00000   100%     -    0s
         0     0    0.00000    0   16    5.81101    0.00000   100%     -    0s
         0     0    0.00000    0   14    5.81101    0.00000   100%     -    0s
         0     0    0.00000    0   26    5.81101    0.00000   100%     -    0s
         0     0    0.00000    0   12    5.81101    0.00000   100%     -    0s
         0     0    0.00000    0   20    5.81101    0.00000   100%     -    0s
         0     0    0.00000    0    2    5.81101    0.00000   100%     -    0s
         0     0    0.00000    0   22    5.81101    0.00000   100%     -    0s
         0     0    0.00000    0   10    5.81101    0.00000   100%     -    0s
         0     0    0.00000    0   28    5.81101    0.00000   100%     -    0s
         0     0    0.00000    0   14    5.81101    0.00000   100%     -    0s
         0     0    0.00000    0   22    5.81101    0.00000   100%     -    0s
         0     0    0.00000    0    8    5.81101    0.00000   100%     -    0s
         0     0    0.00000    0   28    5.81101    0.00000   100%     -    0s
         0     0    0.00000    0   12    5.81101    0.00000   100%     -    0s
         0     0    0.00000    0   14    5.81101    0.00000   100%     -    0s
         0     0    0.00000    0   14    5.81101    0.00000   100%     -    0s
         0     0    0.00000    0   18    5.81101    0.00000   100%     -    0s
         0     0    0.00000    0   18    5.81101    0.00000   100%     -    0s
         0     0    0.00000    0   16    5.81101    0.00000   100%     -    0s
         0     0    0.00000    0   10    5.81101    0.00000   100%     -    0s
         0     0    0.00000    0   20    5.81101    0.00000   100%     -    0s
         0     0    0.00000    0   12    5.81101    0.00000   100%     -    0s
         0     0    0.00000    0   22    5.81101    0.00000   100%     -    0s
         0     0    0.00000    0   20    5.81101    0.00000   100%     -    0s
         0     0    0.00000    0   26    5.81101    0.00000   100%     -    0s
         0     0    0.00000    0   12    5.81101    0.00000   100%     -    0s
         0     0    0.00000    0   22    5.81101    0.00000   100%     -    0s
         0     0    0.00000    0   10    5.81101    0.00000   100%     -    0s
         0     2    0.00000    0   18    5.81101    0.00000   100%     -    0s
    H  290   233                       5.8110101    0.00000   100%   6.7    0s
    H  392   284                       5.8110101    0.00000   100%  49.7    1s
    H  393   269                       5.8110101    0.00000   100%  49.6    1s
     19072 11108    5.38617   50   10    5.81101    0.00000   100%   7.4    5s
     47856 25892    4.52460   36   16    5.81101    0.50145  91.4%   6.9   10s
     77665 40391    2.33683   24   22    5.81101    0.81996  85.9%   6.7   15s
     106775 53991    4.38390   33   14    5.81101    1.06986  81.6%   6.6   20s
     135698 66959    2.18138   29   18    5.81101    1.27233  78.1%   6.5   25s
     163626 79175    5.67343   28   14    5.81101    1.42068  75.6%   6.5   30s
     188903 90174     cutoff   40         5.81101    1.54904  73.3%   6.5   35s
     215446 101548    5.41675   34   12    5.81101    1.64098  71.8%   6.5   40s
     241519 112187     cutoff   30         5.81101    1.74162  70.0%   6.5   45s
     267947 122871     cutoff   45         5.81101    1.83412  68.4%   6.5   50s
     292379 132675    4.89781   43   12    5.81101    1.90787  67.2%   6.4   55s
     318230 142798     cutoff   41         5.81101    1.97720  66.0%   6.4   60s
     343929 152840    4.40541   29   18    5.81101    2.04043  64.9%   6.4   65s
    H362694 160228                       5.8110099    2.08642  64.1%   6.4   68s
    H362788 160254                       5.8110099    2.08670  64.1%   6.4   69s
    H362843 160282                       5.8110099    2.08674  64.1%   6.4   69s
    H363317 160434                       5.8110099    2.08765  64.1%   6.4   69s
    H364473 160861                       5.8110099    2.09068  64.0%   6.4   69s
     366827 161799    5.71352   34   10    5.81101    2.09588  63.9%   6.4   70s
     391344 170884    4.81694   39   16    5.81101    2.14992  63.0%   6.4   75s
     416140 179967     cutoff   45         5.81101    2.20321  62.1%   6.4   80s
     440395 189126    3.40047   33   16    5.81101    2.24336  61.4%   6.4   85s
     464669 198221    2.28990   33   19    5.81101    2.28952  60.6%   6.4   90s
     486424 206090    3.93423   27   16    5.81101    2.32544  60.0%   6.4   95s
     510484 214953    3.41287   24   16    5.81101    2.35914  59.4%   6.4  100s
     533335 222917    5.63095   38   14    5.81101    2.39409  58.8%   6.4  105s
     557077 231506    3.84472   29   14    5.81101    2.43212  58.1%   6.4  110s
     578632 239193     cutoff   33         5.81101    2.45809  57.7%   6.5  115s
     602000 247305    5.46208   32   14    5.81101    2.49315  57.1%   6.5  120s
     625085 255473    4.59462   45   10    5.81101    2.52363  56.6%   6.5  125s
     648365 263759    5.52777   27   15    5.81101    2.55469  56.0%   6.5  130s
     669376 271080    4.35135   35   12    5.81101    2.58067  55.6%   6.4  135s
     692361 279067    5.75077   49    6    5.81101    2.60615  55.2%   6.5  140s
     715783 286962     cutoff   49         5.81101    2.63568  54.6%   6.5  145s
     738799 294600    3.22915   38   14    5.81101    2.66442  54.1%   6.5  150s
     761760 302372    5.29854   32   14    5.81101    2.68912  53.7%   6.4  155s
     782961 309321    5.27568   24   18    5.81101    2.70960  53.4%   6.4  160s
     805520 316946    5.29197   46    8    5.81101    2.73031  53.0%   6.5  165s
    H810998 316437                       5.7716372    2.73551  52.6%   6.5  166s
    H811141 316487                       5.7716369    2.73568  52.6%   6.5  166s
     828268 322133    4.65695   41    8    5.77164    2.75407  52.3%   6.4  170s
     851079 329360    4.95217   34   14    5.77164    2.77835  51.9%   6.4  175s
    H854103 330273                       5.7716368    2.78154  51.8%   6.4  176s
    H854103 330273                       5.7716368    2.78154  51.8%   6.4  176s
    H854103 330273                       5.7716368    2.78154  51.8%   6.4  176s
    H854411 330394                       5.7716368    2.78188  51.8%   6.4  176s
     870972 335657     cutoff   38         5.77164    2.79903  51.5%   6.4  180s
     893571 342577     cutoff   35         5.77164    2.82219  51.1%   6.4  185s
     915991 349359    3.65906   32   14    5.77164    2.84557  50.7%   6.4  190s
     938469 356267     cutoff   27         5.77164    2.86898  50.3%   6.4  195s
     959005 362448    4.48111   36   10    5.77164    2.88885  49.9%   6.4  200s
     981111 369215    4.37507   36   13    5.77164    2.90877  49.6%   6.4  205s
     1002950 375692    4.94778   32   16    5.77164    2.92760  49.3%   6.4  210s
     1024857 382358    4.69702   42   11    5.77164    2.94766  48.9%   6.4  215s
     1044865 388263     cutoff   30         5.77164    2.96541  48.6%   6.4  220s
     1066934 394937    5.31339   51    6    5.77164    2.98338  48.3%   6.4  225s
     1088695 401200    5.36145   41    8    5.77164    3.00009  48.0%   6.4  230s
     1110160 407415     cutoff   39         5.77164    3.01828  47.7%   6.4  235s
     1128621 412827     cutoff   40         5.77164    3.03261  47.5%   6.4  240s
     1150071 418883    5.47747   44   10    5.77164    3.05003  47.2%   6.4  245s
     1171183 424717 infeasible   44         5.77164    3.06746  46.9%   6.4  250s
     1192264 430776     cutoff   41         5.77164    3.08472  46.6%   6.4  255s
     1213332 436553     cutoff   44         5.77164    3.10039  46.3%   6.4  260s
     1234524 442428    3.42102   32   16    5.77164    3.11663  46.0%   6.4  265s
     1252932 447648    4.16162   46   10    5.77164    3.13053  45.8%   6.4  270s
     1274267 453607     cutoff   33         5.77164    3.14453  45.5%   6.4  275s
     1295026 459300     cutoff   38         5.77164    3.15974  45.3%   6.4  280s
     1315962 464878     cutoff   36         5.77164    3.17477  45.0%   6.4  285s
     1337189 470625     cutoff   33         5.77164    3.18894  44.7%   6.4  290s
     1358016 476178    5.60774   43   10    5.77164    3.20294  44.5%   6.4  295s
     1377658 481378    5.58871   42   10    5.77164    3.21409  44.3%   6.4  300s
    
    Cutting planes:
      Flow cover: 10
    
    Explored 1377659 nodes (8887270 simplex iterations) in 300.00 seconds (368.63 work units)
    Thread count was 1 (of 96 available processors)
    
    Solution count 7: 5.77164 5.81101 6.10479 ... 12.0075
    
    Time limit reached
    Best objective 5.771636841896e+00, best bound 3.214087904760e+00, gap 44.3124%
    
    User-callback calls 1377779, time in user-callback 0.10 sec

--- Reading solution for model GAMS_MODEL
***
*** Solver did not provide marginals for model GAMS_MODEL
***
--- Executing after solve: elapsed 0:05:00.516
--- model.gms(400) 3 Mb
--- model.gms(656) 5 Mb
--- Putfile results /local/scratch/a/sgusev/repos/k_means/data/gams_gurobi_gdp.bigm/no_mode/2026-02-15_03-57-21/original/results.dat
--- Putfile statresults /local/scratch/a/sgusev/repos/k_means/data/gams_gurobi_gdp.bigm/no_mode/2026-02-15_03-57-21/original/resultsstat.dat
*** Status: Normal completion
--- Job model.gms Stop 02/15/26 04:02:22 elapsed 0:05:00.516
Original problem solved. Time taken: 301.080454826355 seconds
Original objective value: 5.771636841895611
